Route #1: 394 902 66 129 742 298 119 610 23 
Route #2: 968 473 109 77 417 424 90 395 519 728 65 186 
Route #3: 745 218 371 643 143 844 956 661 
Route #4: 544 278 511 308 191 712 898 979 915 732 
Route #5: 488 800 211 359 442 804 715 888 923 355 
Route #6: 615 667 808 926 964 988 277 286 824 
Route #7: 856 758 478 477 5 644 900 1000 
Route #8: 660 402 456 565 766 343 930 756 241 169 
Route #9: 224 312 590 120 365 521 996 737 199 873 576 
Route #10: 997 87 836 69 951 495 420 21 583 676 
Route #11: 231 1 70 166 515 307 617 687 273 717 
Route #12: 155 924 638 72 573 337 613 588 947 751 
Route #13: 130 725 612 904 855 13 78 794 971 628 376 817 
Route #14: 183 981 125 954 404 39 782 256 857 510 
Route #15: 36 933 577 533 329 249 945 20 46 689 138 905 225 946 
Route #16: 663 581 52 335 368 654 918 530 444 699 59 140 
Route #17: 714 561 498 438 22 311 893 266 
Distance: 35115
